Ti6050 F18150
1.0
  52.8575541018321644    0.0000000000000000   30.0482495502405271
  17.4824578088363438   49.8826908300906098   30.0482444824624295
   0.0000000000000000    0.0000000000000000  248.7331801429317579
Ti F Ti F Ti F Ti F Ti F Ti F Ti F Ti F Ti F Ti F Ti F Ti F Ti F Ti F Ti F Ti F Ti F Ti F Ti F Ti F Ti F Ti F Ti F Ti F Ti F
242 726 242 726 242 726 242 726 242 726 242 726 242 726 242 726 242 726 242 726 242 726 242 726 242 726 242 726 242 726 242 726 242 726 242 726 242 726 242 726 242 726 242 726 242 726 242 726 242 726
direct
   0.0454545454545454    0.0454545454545455    0.2307973598993179 Ti
   0.0454545454545454    0.1363636363636364    0.2307973598993179 Ti
   0.0454545454545455    0.2272727272727273    0.2307973598993179 Ti
   0.0454545454545454    0.3181818181818182    0.2307973598993179 Ti
   0.0454545454545454    0.4090909090909092    0.2307973598993179 Ti
   0.0454545454545455    0.5000000000000000    0.2307973598993179 Ti
   0.0454545454545455    0.5909090909090908    0.2307973598993179 Ti
   0.0454545454545455    0.6818181818181819    0.2307973598993179 Ti
   0.0454545454545454    0.7727272727272727    0.2307973598993179 Ti
   0.0454545454545455    0.8636363636363638    0.2307973598993179 Ti
   0.0454545454545455    0.9545454545454546    0.2307973598993178 Ti
   0.1363636363636364    0.0454545454545455    0.2307973598993179 Ti
   0.1363636363636364    0.1363636363636364    0.2307973598993179 Ti
   0.1363636363636364    0.2272727272727273    0.2307973598993179 Ti
   0.1363636363636364    0.3181818181818182    0.2307973598993179 Ti
   0.1363636363636363    0.4090909090909092    0.2307973598993179 Ti
   0.1363636363636364    0.5000000000000000    0.2307973598993179 Ti
   0.1363636363636364    0.5909090909090908    0.2307973598993179 Ti
   0.1363636363636364    0.6818181818181819    0.2307973598993179 Ti
   0.1363636363636364    0.7727272727272727    0.2307973598993179 Ti
   0.1363636363636363    0.8636363636363638    0.2307973598993179 Ti
   0.1363636363636363    0.9545454545454546    0.2307973598993179 Ti
   0.2272727272727273    0.0454545454545455    0.2307973598993179 Ti
   0.2272727272727273    0.1363636363636364    0.2307973598993179 Ti
   0.2272727272727273    0.2272727272727273    0.2307973598993178 Ti
   0.2272727272727272    0.3181818181818182    0.2307973598993179 Ti
   0.2272727272727273    0.4090909090909092    0.2307973598993179 Ti
   0.2272727272727273    0.5000000000000000    0.2307973598993178 Ti
   0.2272727272727273    0.5909090909090908    0.2307973598993179 Ti
   0.2272727272727272    0.6818181818181819    0.2307973598993179 Ti
   0.2272727272727272    0.7727272727272727    0.2307973598993179 Ti
   0.2272727272727272    0.8636363636363638    0.2307973598993179 Ti
   0.2272727272727273    0.9545454545454546    0.2307973598993179 Ti
   0.3181818181818181    0.0454545454545455    0.2307973598993179 Ti
   0.3181818181818181    0.1363636363636364    0.2307973598993179 Ti
   0.3181818181818182    0.2272727272727273    0.2307973598993179 Ti
   0.3181818181818182    0.3181818181818182    0.2307973598993179 Ti
   0.3181818181818182    0.4090909090909092    0.2307973598993179 Ti
   0.3181818181818181    0.5000000000000000    0.2307973598993179 Ti
   0.3181818181818181    0.5909090909090908    0.2307973598993179 Ti
   0.3181818181818182    0.6818181818181819    0.2307973598993179 Ti
   0.3181818181818181    0.7727272727272727    0.2307973598993179 Ti
   0.3181818181818182    0.8636363636363638    0.2307973598993179 Ti
   0.3181818181818182    0.9545454545454546    0.2307973598993179 Ti
   0.4090909090909091    0.0454545454545455    0.2307973598993179 Ti
   0.4090909090909091    0.1363636363636364    0.2307973598993179 Ti
   0.4090909090909091    0.2272727272727273    0.2307973598993179 Ti
   0.4090909090909091    0.3181818181818182    0.2307973598993179 Ti
   0.4090909090909092    0.4090909090909092    0.2307973598993179 Ti
   0.4090909090909090    0.5000000000000000    0.2307973598993179 Ti
   0.4090909090909091    0.5909090909090908    0.2307973598993178 Ti
   0.4090909090909091    0.6818181818181819    0.2307973598993179 Ti
   0.4090909090909091    0.7727272727272727    0.2307973598993179 Ti
   0.4090909090909090    0.8636363636363638    0.2307973598993178 Ti
   0.4090909090909089    0.9545454545454546    0.2307973598993179 Ti
   0.5000000000000000    0.0454545454545455    0.2307973598993179 Ti
   0.5000000000000000    0.1363636363636364    0.2307973598993179 Ti
   0.5000000000000000    0.2272727272727273    0.2307973598993178 Ti
   0.5000000000000000    0.3181818181818182    0.2307973598993179 Ti
   0.5000000000000001    0.4090909090909092    0.2307973598993178 Ti
   0.4999999999999999    0.5000000000000000    0.2307973598993179 Ti
   0.5000000000000000    0.5909090909090908    0.2307973598993179 Ti
   0.5000000000000000    0.6818181818181819    0.2307973598993178 Ti
   0.5000000000000000    0.7727272727272727    0.2307973598993179 Ti
   0.4999999999999999    0.8636363636363638    0.2307973598993179 Ti
   0.4999999999999999    0.9545454545454546    0.2307973598993179 Ti
   0.5909090909090908    0.0454545454545455    0.2307973598993179 Ti
   0.5909090909090907    0.1363636363636364    0.2307973598993179 Ti
   0.5909090909090908    0.2272727272727273    0.2307973598993179 Ti
   0.5909090909090907    0.3181818181818182    0.2307973598993179 Ti
   0.5909090909090907    0.4090909090909092    0.2307973598993179 Ti
   0.5909090909090908    0.5000000000000000    0.2307973598993179 Ti
   0.5909090909090908    0.5909090909090908    0.2307973598993179 Ti
   0.5909090909090908    0.6818181818181819    0.2307973598993179 Ti
   0.5909090909090908    0.7727272727272727    0.2307973598993179 Ti
   0.5909090909090908    0.8636363636363638    0.2307973598993179 Ti
   0.5909090909090907    0.9545454545454546    0.2307973598993179 Ti
   0.6818181818181818    0.0454545454545455    0.2307973598993179 Ti
   0.6818181818181817    0.1363636363636364    0.2307973598993179 Ti
   0.6818181818181818    0.2272727272727273    0.2307973598993179 Ti
   0.6818181818181817    0.3181818181818182    0.2307973598993179 Ti
   0.6818181818181817    0.4090909090909092    0.2307973598993179 Ti
   0.6818181818181817    0.5000000000000000    0.2307973598993179 Ti
   0.6818181818181818    0.5909090909090908    0.2307973598993179 Ti
   0.6818181818181817    0.6818181818181819    0.2307973598993179 Ti
   0.6818181818181818    0.7727272727272727    0.2307973598993179 Ti
   0.6818181818181817    0.8636363636363638    0.2307973598993179 Ti
   0.6818181818181817    0.9545454545454546    0.2307973598993179 Ti
   0.7727272727272727    0.0454545454545455    0.2307973598993179 Ti
   0.7727272727272726    0.1363636363636364    0.2307973598993179 Ti
   0.7727272727272727    0.2272727272727273    0.2307973598993179 Ti
   0.7727272727272726    0.3181818181818182    0.2307973598993179 Ti
   0.7727272727272726    0.4090909090909092    0.2307973598993179 Ti
   0.7727272727272727    0.5000000000000000    0.2307973598993179 Ti
   0.7727272727272727    0.5909090909090908    0.2307973598993179 Ti
   0.7727272727272727    0.6818181818181819    0.2307973598993179 Ti
   0.7727272727272727    0.7727272727272727    0.2307973598993179 Ti
   0.7727272727272727    0.8636363636363638    0.2307973598993179 Ti
   0.7727272727272726    0.9545454545454546    0.2307973598993179 Ti
   0.8636363636363636    0.0454545454545455    0.2307973598993179 Ti
   0.8636363636363635    0.1363636363636364    0.2307973598993179 Ti
   0.8636363636363636    0.2272727272727273    0.2307973598993179 Ti
   0.8636363636363635    0.3181818181818182    0.2307973598993180 Ti
   0.8636363636363635    0.4090909090909092    0.2307973598993179 Ti
   0.8636363636363638    0.5000000000000000    0.2307973598993179 Ti
   0.8636363636363636    0.5909090909090908    0.2307973598993179 Ti
   0.8636363636363635    0.6818181818181819    0.2307973598993178 Ti
   0.8636363636363638    0.7727272727272727    0.2307973598993179 Ti
   0.8636363636363635    0.8636363636363638    0.2307973598993180 Ti
   0.8636363636363636    0.9545454545454546    0.2307973598993179 Ti
   0.9545454545454546    0.0454545454545455    0.2307973598993179 Ti
   0.9545454545454545    0.1363636363636364    0.2307973598993179 Ti
   0.9545454545454547    0.2272727272727273    0.2307973598993180 Ti
   0.9545454545454544    0.3181818181818182    0.2307973598993179 Ti
   0.9545454545454546    0.4090909090909092    0.2307973598993179 Ti
   0.9545454545454546    0.5000000000000000    0.2307973598993179 Ti
   0.9545454545454545    0.5909090909090908    0.2307973598993179 Ti
   0.9545454545454546    0.6818181818181819    0.2307973598993179 Ti
   0.9545454545454546    0.7727272727272727    0.2307973598993179 Ti
   0.9545454545454546    0.8636363636363638    0.2307973598993179 Ti
   0.9545454545454545    0.9545454545454546    0.2307973598993179 Ti
   0.0000000000000000    0.0000000000000000    0.2419084710104290 Ti
   0.0000000000000000    0.0909090909090909    0.2419084710104290 Ti
   0.0000000000000000    0.1818181818181818    0.2419084710104289 Ti
   0.0000000000000000    0.2727272727272727    0.2419084710104289 Ti
   0.0000000000000000    0.3636363636363636    0.2419084710104290 Ti
   0.0000000000000000    0.4545454545454546    0.2419084710104289 Ti
   0.0000000000000000    0.5454545454545454    0.2419084710104289 Ti
   0.0000000000000000    0.6363636363636364    0.2419084710104290 Ti
   0.0000000000000000    0.7272727272727273    0.2419084710104289 Ti
   0.0000000000000000    0.8181818181818183    0.2419084710104289 Ti
   0.0000000000000001    0.9090909090909092    0.2419084710104290 Ti
   0.0909090909090909    0.0000000000000000    0.2419084710104290 Ti
   0.0909090909090909    0.0909090909090909    0.2419084710104290 Ti
   0.0909090909090909    0.1818181818181818    0.2419084710104290 Ti
   0.0909090909090909    0.2727272727272727    0.2419084710104290 Ti
   0.0909090909090909    0.3636363636363636    0.2419084710104290 Ti
   0.0909090909090909    0.4545454545454546    0.2419084710104290 Ti
   0.0909090909090909    0.5454545454545454    0.2419084710104290 Ti
   0.0909090909090909    0.6363636363636364    0.2419084710104290 Ti
   0.0909090909090909    0.7272727272727273    0.2419084710104290 Ti
   0.0909090909090909    0.8181818181818183    0.2419084710104290 Ti
   0.0909090909090909    0.9090909090909092    0.2419084710104290 Ti
   0.1818181818181818    0.0000000000000000    0.2419084710104290 Ti
   0.1818181818181818    0.0909090909090909    0.2419084710104290 Ti
   0.1818181818181818    0.1818181818181818    0.2419084710104290 Ti
   0.1818181818181818    0.2727272727272727    0.2419084710104290 Ti
   0.1818181818181818    0.3636363636363636    0.2419084710104289 Ti
   0.1818181818181818    0.4545454545454546    0.2419084710104290 Ti
   0.1818181818181819    0.5454545454545454    0.2419084710104290 Ti
   0.1818181818181818    0.6363636363636364    0.2419084710104289 Ti
   0.1818181818181818    0.7272727272727273    0.2419084710104290 Ti
   0.1818181818181818    0.8181818181818183    0.2419084710104290 Ti
   0.1818181818181819    0.9090909090909092    0.2419084710104289 Ti
   0.2727272727272727    0.0000000000000000    0.2419084710104289 Ti
   0.2727272727272727    0.0909090909090909    0.2419084710104290 Ti
   0.2727272727272727    0.1818181818181818    0.2419084710104290 Ti
   0.2727272727272727    0.2727272727272727    0.2419084710104289 Ti
   0.2727272727272727    0.3636363636363636    0.2419084710104290 Ti
   0.2727272727272727    0.4545454545454546    0.2419084710104290 Ti
   0.2727272727272727    0.5454545454545454    0.2419084710104290 Ti
   0.2727272727272727    0.6363636363636364    0.2419084710104290 Ti
   0.2727272727272726    0.7272727272727273    0.2419084710104290 Ti
   0.2727272727272727    0.8181818181818183    0.2419084710104289 Ti
   0.2727272727272728    0.9090909090909092    0.2419084710104290 Ti
   0.3636363636363636    0.0000000000000000    0.2419084710104290 Ti
   0.3636363636363636    0.0909090909090909    0.2419084710104290 Ti
   0.3636363636363636    0.1818181818181818    0.2419084710104290 Ti
   0.3636363636363636    0.2727272727272727    0.2419084710104290 Ti
   0.3636363636363636    0.3636363636363636    0.2419084710104290 Ti
   0.3636363636363636    0.4545454545454546    0.2419084710104290 Ti
   0.3636363636363636    0.5454545454545454    0.2419084710104290 Ti
   0.3636363636363636    0.6363636363636364    0.2419084710104290 Ti
   0.3636363636363635    0.7272727272727273    0.2419084710104289 Ti
   0.3636363636363636    0.8181818181818183    0.2419084710104290 Ti
   0.3636363636363636    0.9090909090909092    0.2419084710104291 Ti
   0.4545454545454546    0.0000000000000000    0.2419084710104289 Ti
   0.4545454545454546    0.0909090909090909    0.2419084710104290 Ti
   0.4545454545454546    0.1818181818181818    0.2419084710104290 Ti
   0.4545454545454545    0.2727272727272727    0.2419084710104289 Ti
   0.4545454545454546    0.3636363636363636    0.2419084710104290 Ti
   0.4545454545454546    0.4545454545454546    0.2419084710104290 Ti
   0.4545454545454546    0.5454545454545454    0.2419084710104289 Ti
   0.4545454545454546    0.6363636363636364    0.2419084710104289 Ti
   0.4545454545454546    0.7272727272727273    0.2419084710104290 Ti
   0.4545454545454545    0.8181818181818183    0.2419084710104290 Ti
   0.4545454545454545    0.9090909090909092    0.2419084710104289 Ti
   0.5454545454545454    0.0000000000000000    0.2419084710104290 Ti
   0.5454545454545454    0.0909090909090909    0.2419084710104290 Ti
   0.5454545454545454    0.1818181818181818    0.2419084710104289 Ti
   0.5454545454545453    0.2727272727272727    0.2419084710104290 Ti
   0.5454545454545453    0.3636363636363636    0.2419084710104290 Ti
   0.5454545454545454    0.4545454545454546    0.2419084710104290 Ti
   0.5454545454545453    0.5454545454545454    0.2419084710104290 Ti
   0.5454545454545454    0.6363636363636364    0.2419084710104290 Ti
   0.5454545454545454    0.7272727272727273    0.2419084710104290 Ti
   0.5454545454545452    0.8181818181818183    0.2419084710104290 Ti
   0.5454545454545454    0.9090909090909092    0.2419084710104290 Ti
   0.6363636363636364    0.0000000000000000    0.2419084710104290 Ti
   0.6363636363636364    0.0909090909090909    0.2419084710104290 Ti
   0.6363636363636364    0.1818181818181818    0.2419084710104290 Ti
   0.6363636363636362    0.2727272727272727    0.2419084710104290 Ti
   0.6363636363636362    0.3636363636363636    0.2419084710104290 Ti
   0.6363636363636364    0.4545454545454546    0.2419084710104289 Ti
   0.6363636363636362    0.5454545454545454    0.2419084710104290 Ti
   0.6363636363636364    0.6363636363636364    0.2419084710104290 Ti
   0.6363636363636364    0.7272727272727273    0.2419084710104289 Ti
   0.6363636363636362    0.8181818181818183    0.2419084710104290 Ti
   0.6363636363636362    0.9090909090909092    0.2419084710104291 Ti
   0.7272727272727273    0.0000000000000000    0.2419084710104290 Ti
   0.7272727272727273    0.0909090909090909    0.2419084710104290 Ti
   0.7272727272727273    0.1818181818181818    0.2419084710104290 Ti
   0.7272727272727272    0.2727272727272727    0.2419084710104290 Ti
   0.7272727272727272    0.3636363636363636    0.2419084710104290 Ti
   0.7272727272727273    0.4545454545454546    0.2419084710104290 Ti
   0.7272727272727272    0.5454545454545454    0.2419084710104290 Ti
   0.7272727272727273    0.6363636363636364    0.2419084710104290 Ti
   0.7272727272727273    0.7272727272727273    0.2419084710104290 Ti
   0.7272727272727271    0.8181818181818183    0.2419084710104290 Ti
   0.7272727272727273    0.9090909090909092    0.2419084710104290 Ti
   0.8181818181818182    0.0000000000000000    0.2419084710104290 Ti
   0.8181818181818182    0.0909090909090909    0.2419084710104289 Ti
   0.8181818181818182    0.1818181818181818    0.2419084710104290 Ti
   0.8181818181818181    0.2727272727272727    0.2419084710104290 Ti
   0.8181818181818181    0.3636363636363636    0.2419084710104290 Ti
   0.8181818181818182    0.4545454545454546    0.2419084710104290 Ti
   0.8181818181818181    0.5454545454545454    0.2419084710104290 Ti
   0.8181818181818182    0.6363636363636364    0.2419084710104290 Ti
   0.8181818181818181    0.7272727272727273    0.2419084710104290 Ti
   0.8181818181818181    0.8181818181818183    0.2419084710104290 Ti
   0.8181818181818183    0.9090909090909092    0.2419084710104290 Ti
   0.9090909090909092    0.0000000000000000    0.2419084710104290 Ti
   0.9090909090909092    0.0909090909090909    0.2419084710104290 Ti
   0.9090909090909092    0.1818181818181818    0.2419084710104290 Ti
   0.9090909090909091    0.2727272727272727    0.2419084710104290 Ti
   0.9090909090909092    0.3636363636363636    0.2419084710104290 Ti
   0.9090909090909092    0.4545454545454546    0.2419084710104290 Ti
   0.9090909090909091    0.5454545454545454    0.2419084710104290 Ti
   0.9090909090909093    0.6363636363636364    0.2419084710104290 Ti
   0.9090909090909092    0.7272727272727273    0.2419084710104290 Ti
   0.9090909090909092    0.8181818181818183    0.2419084710104290 Ti
   0.9090909090909092    0.9090909090909092    0.2419084710104290 Ti
   0.0230171727272727    0.0681841390909091    0.2251701790104290 F
   0.0230171727272727    0.1590932300000000    0.2251701790104290 F
   0.0230171727272727    0.2500023209090909    0.2251701790104290 F
   0.0230171727272727    0.3409114118181818    0.2251701790104290 F
   0.0230171727272727    0.4318205027272727    0.2251701790104290 F
   0.0230171727272727    0.5227295936363637    0.2251701790104290 F
   0.0230171727272727    0.6136386845454546    0.2251701790104290 F
   0.0230171727272727    0.7045477754545455    0.2251701790104290 F
   0.0230171727272727    0.7954568663636364    0.2251701790104290 F
   0.0230171727272728    0.8863659572727274    0.2251701790104290 F
   0.0230171727272728    0.9772750481818182    0.2251701790104290 F
   0.1139262636363636    0.0681841390909091    0.2251701790104290 F
   0.1139262636363637    0.1590932300000000    0.2251701790104290 F
   0.1139262636363636    0.2500023209090909    0.2251701790104290 F
   0.1139262636363636    0.3409114118181818    0.2251701790104290 F
   0.1139262636363637    0.4318205027272727    0.2251701790104290 F
   0.1139262636363637    0.5227295936363637    0.2251701790104290 F
   0.1139262636363637    0.6136386845454546    0.2251701790104290 F
   0.1139262636363636    0.7045477754545455    0.2251701790104290 F
   0.1139262636363637    0.7954568663636364    0.2251701790104290 F
   0.1139262636363635    0.8863659572727274    0.2251701790104290 F
   0.1139262636363636    0.9772750481818182    0.2251701790104290 F
   0.2048353545454545    0.0681841390909091    0.2251701790104290 F
   0.2048353545454545    0.1590932300000000    0.2251701790104290 F
   0.2048353545454545    0.2500023209090909    0.2251701790104290 F
   0.2048353545454545    0.3409114118181818    0.2251701790104290 F
   0.2048353545454545    0.4318205027272727    0.2251701790104290 F
   0.2048353545454545    0.5227295936363637    0.2251701790104290 F
   0.2048353545454546    0.6136386845454546    0.2251701790104290 F
   0.2048353545454545    0.7045477754545455    0.2251701790104290 F
   0.2048353545454545    0.7954568663636364    0.2251701790104290 F
   0.2048353545454545    0.8863659572727274    0.2251701790104290 F
   0.2048353545454545    0.9772750481818182    0.2251701790104290 F
   0.2957444454545454    0.0681841390909091    0.2251701790104290 F
   0.2957444454545454    0.1590932300000000    0.2251701790104290 F
   0.2957444454545454    0.2500023209090909    0.2251701790104290 F
   0.2957444454545455    0.3409114118181818    0.2251701790104290 F
   0.2957444454545455    0.4318205027272727    0.2251701790104290 F
   0.2957444454545454    0.5227295936363637    0.2251701790104290 F
   0.2957444454545454    0.6136386845454546    0.2251701790104290 F
   0.2957444454545454    0.7045477754545455    0.2251701790104290 F
   0.2957444454545455    0.7954568663636364    0.2251701790104290 F
   0.2957444454545454    0.8863659572727274    0.2251701790104290 F
   0.2957444454545455    0.9772750481818182    0.2251701790104290 F
   0.3866535363636363    0.0681841390909091    0.2251701790104290 F
   0.3866535363636363    0.1590932300000000    0.2251701790104290 F
   0.3866535363636364    0.2500023209090909    0.2251701790104290 F
   0.3866535363636364    0.3409114118181818    0.2251701790104290 F
   0.3866535363636364    0.4318205027272727    0.2251701790104290 F
   0.3866535363636363    0.5227295936363637    0.2251701790104290 F
   0.3866535363636363    0.6136386845454546    0.2251701790104290 F
   0.3866535363636363    0.7045477754545455    0.2251701790104290 F
   0.3866535363636364    0.7954568663636364    0.2251701790104290 F
   0.3866535363636363    0.8863659572727274    0.2251701790104290 F
   0.3866535363636363    0.9772750481818182    0.2251701790104290 F
   0.4775626272727272    0.0681841390909091    0.2251701790104290 F
   0.4775626272727272    0.1590932300000000    0.2251701790104290 F
   0.4775626272727274    0.2500023209090909    0.2251701790104290 F
   0.4775626272727273    0.3409114118181818    0.2251701790104290 F
   0.4775626272727274    0.4318205027272727    0.2251701790104290 F
   0.4775626272727272    0.5227295936363637    0.2251701790104290 F
   0.4775626272727272    0.6136386845454546    0.2251701790104290 F
   0.4775626272727272    0.7045477754545455    0.2251701790104290 F
   0.4775626272727274    0.7954568663636364    0.2251701790104290 F
   0.4775626272727272    0.8863659572727274    0.2251701790104290 F
   0.4775626272727272    0.9772750481818182    0.2251701790104290 F
   0.5684717181818181    0.0681841390909091    0.2251701790104290 F
   0.5684717181818181    0.1590932300000000    0.2251701790104290 F
   0.5684717181818181    0.2500023209090909    0.2251701790104290 F
   0.5684717181818180    0.3409114118181818    0.2251701790104291 F
   0.5684717181818181    0.4318205027272727    0.2251701790104290 F
   0.5684717181818180    0.5227295936363637    0.2251701790104290 F
   0.5684717181818181    0.6136386845454546    0.2251701790104290 F
   0.5684717181818181    0.7045477754545455    0.2251701790104289 F
   0.5684717181818181    0.7954568663636364    0.2251701790104290 F
   0.5684717181818180    0.8863659572727274    0.2251701790104291 F
   0.5684717181818180    0.9772750481818182    0.2251701790104290 F
   0.6593808090909090    0.0681841390909091    0.2251701790104290 F
   0.6593808090909090    0.1590932300000000    0.2251701790104290 F
   0.6593808090909090    0.2500023209090909    0.2251701790104290 F
   0.6593808090909089    0.3409114118181818    0.2251701790104290 F
   0.6593808090909090    0.4318205027272727    0.2251701790104290 F
   0.6593808090909090    0.5227295936363637    0.2251701790104290 F
   0.6593808090909090    0.6136386845454546    0.2251701790104290 F
   0.6593808090909090    0.7045477754545455    0.2251701790104290 F
   0.6593808090909090    0.7954568663636364    0.2251701790104290 F
   0.6593808090909090    0.8863659572727274    0.2251701790104290 F
   0.6593808090909089    0.9772750481818182    0.2251701790104290 F
   0.7502899000000000    0.0681841390909091    0.2251701790104290 F
   0.7502899000000000    0.1590932300000000    0.2251701790104290 F
   0.7502899000000000    0.2500023209090909    0.2251701790104290 F
   0.7502898999999998    0.3409114118181818    0.2251701790104290 F
   0.7502899000000000    0.4318205027272727    0.2251701790104290 F
   0.7502898999999998    0.5227295936363637    0.2251701790104290 F
   0.7502899000000000    0.6136386845454546    0.2251701790104290 F
   0.7502899000000000    0.7045477754545455    0.2251701790104290 F
   0.7502899000000000    0.7954568663636364    0.2251701790104290 F
   0.7502898999999998    0.8863659572727274    0.2251701790104290 F
   0.7502898999999998    0.9772750481818182    0.2251701790104290 F
   0.8411989909090909    0.0681841390909091    0.2251701790104290 F
   0.8411989909090909    0.1590932300000000    0.2251701790104290 F
   0.8411989909090909    0.2500023209090909    0.2251701790104290 F
   0.8411989909090908    0.3409114118181818    0.2251701790104290 F
   0.8411989909090909    0.4318205027272727    0.2251701790104291 F
   0.8411989909090909    0.5227295936363637    0.2251701790104290 F
   0.8411989909090909    0.6136386845454546    0.2251701790104290 F
   0.8411989909090908    0.7045477754545455    0.2251701790104290 F
   0.8411989909090910    0.7954568663636364    0.2251701790104290 F
   0.8411989909090907    0.8863659572727274    0.2251701790104290 F
   0.8411989909090909    0.9772750481818182    0.2251701790104291 F
   0.9321080818181818    0.0681841390909091    0.2251701790104290 F
   0.9321080818181818    0.1590932300000000    0.2251701790104290 F
   0.9321080818181819    0.2500023209090909    0.2251701790104290 F
   0.9321080818181816    0.3409114118181818    0.2251701790104290 F
   0.9321080818181818    0.4318205027272727    0.2251701790104290 F
   0.9321080818181817    0.5227295936363637    0.2251701790104290 F
   0.9321080818181817    0.6136386845454546    0.2251701790104290 F
   0.9321080818181818    0.7045477754545455    0.2251701790104290 F
   0.9321080818181818    0.7954568663636364    0.2251701790104290 F
   0.9321080818181817    0.8863659572727274    0.2251701790104290 F
   0.9321080818181817    0.9772750481818182    0.2251701790104290 F
   0.0681841390909091    0.0224342600000000    0.2253126687882068 F
   0.0681841390909091    0.1133433509090909    0.2253126687882068 F
   0.0681841390909091    0.2042524418181818    0.2253126687882068 F
   0.0681841390909091    0.2951615327272727    0.2253126687882068 F
   0.0681841390909091    0.3860706236363636    0.2253126687882068 F
   0.0681841390909091    0.4769797145454546    0.2253126687882068 F
   0.0681841390909091    0.5678888054545455    0.2253126687882067 F
   0.0681841390909091    0.6587978963636364    0.2253126687882068 F
   0.0681841390909091    0.7497069872727273    0.2253126687882068 F
   0.0681841390909090    0.8406160781818183    0.2253126687882068 F
   0.0681841390909091    0.9315251690909091    0.2253126687882068 F
   0.1590932300000000    0.0224342600000000    0.2253126687882068 F
   0.1590932300000000    0.1133433509090909    0.2253126687882068 F
   0.1590932300000000    0.2042524418181818    0.2253126687882068 F
   0.1590932300000000    0.2951615327272727    0.2253126687882068 F
   0.1590932300000000    0.3860706236363636    0.2253126687882067 F
   0.1590932300000000    0.4769797145454546    0.2253126687882068 F
   0.1590932299999999    0.5678888054545455    0.2253126687882068 F
   0.1590932300000000    0.6587978963636364    0.2253126687882067 F
   0.1590932300000000    0.7497069872727273    0.2253126687882068 F
   0.1590932299999999    0.8406160781818183    0.2253126687882068 F
   0.1590932300000000    0.9315251690909091    0.2253126687882067 F
   0.2500023209090909    0.0224342600000000    0.2253126687882067 F
   0.2500023209090909    0.1133433509090909    0.2253126687882068 F
   0.2500023209090909    0.2042524418181818    0.2253126687882067 F
   0.2500023209090909    0.2951615327272727    0.2253126687882068 F
   0.2500023209090909    0.3860706236363636    0.2253126687882068 F
   0.2500023209090909    0.4769797145454546    0.2253126687882068 F
   0.2500023209090909    0.5678888054545455    0.2253126687882068 F
   0.2500023209090908    0.6587978963636364    0.2253126687882068 F
   0.2500023209090909    0.7497069872727273    0.2253126687882068 F
   0.2500023209090909    0.8406160781818183    0.2253126687882068 F
   0.2500023209090910    0.9315251690909091    0.2253126687882068 F
   0.3409114118181817    0.0224342600000000    0.2253126687882068 F
   0.3409114118181818    0.1133433509090909    0.2253126687882068 F
   0.3409114118181817    0.2042524418181818    0.2253126687882068 F
   0.3409114118181817    0.2951615327272727    0.2253126687882068 F
   0.3409114118181819    0.3860706236363636    0.2253126687882068 F
   0.3409114118181817    0.4769797145454546    0.2253126687882068 F
   0.3409114118181817    0.5678888054545455    0.2253126687882067 F
   0.3409114118181817    0.6587978963636364    0.2253126687882068 F
   0.3409114118181817    0.7497069872727273    0.2253126687882068 F
   0.3409114118181818    0.8406160781818183    0.2253126687882068 F
   0.3409114118181818    0.9315251690909091    0.2253126687882068 F
   0.4318205027272727    0.0224342600000000    0.2253126687882068 F
   0.4318205027272727    0.1133433509090909    0.2253126687882067 F
   0.4318205027272727    0.2042524418181818    0.2253126687882068 F
   0.4318205027272727    0.2951615327272727    0.2253126687882068 F
   0.4318205027272727    0.3860706236363636    0.2253126687882067 F
   0.4318205027272727    0.4769797145454546    0.2253126687882068 F
   0.4318205027272728    0.5678888054545455    0.2253126687882068 F
   0.4318205027272726    0.6587978963636364    0.2253126687882067 F
   0.4318205027272727    0.7497069872727273    0.2253126687882068 F
   0.4318205027272727    0.8406160781818183    0.2253126687882068 F
   0.4318205027272727    0.9315251690909091    0.2253126687882067 F
   0.5227295936363636    0.0224342600000000    0.2253126687882068 F
   0.5227295936363636    0.1133433509090909    0.2253126687882068 F
   0.5227295936363636    0.2042524418181818    0.2253126687882068 F
   0.5227295936363637    0.2951615327272727    0.2253126687882068 F
   0.5227295936363636    0.3860706236363636    0.2253126687882068 F
   0.5227295936363637    0.4769797145454546    0.2253126687882068 F
   0.5227295936363637    0.5678888054545455    0.2253126687882068 F
   0.5227295936363636    0.6587978963636364    0.2253126687882068 F
   0.5227295936363637    0.7497069872727273    0.2253126687882067 F
   0.5227295936363636    0.8406160781818183    0.2253126687882068 F
   0.5227295936363636    0.9315251690909091    0.2253126687882068 F