Ti14700
1.0
  63.9432558800000024    0.0000000000000000    0.0000000000000039
 -31.9716135387564790   55.3764732499999610    0.0000000000000039
   0.0000000000000000    0.0000000000000000  127.1809921500000087
Ti
14700
direct
   0.0000000000000000    0.0000000000000000    0.2407407407407408 Ti
   0.0000000000000000    0.0714285714285714    0.2407407407407408 Ti
   0.0000000000000000    0.1428571428571428    0.2407407407407408 Ti
   0.0000000000000000    0.2142857142857142    0.2407407407407408 Ti
   0.0000000000000000    0.2857142857142857    0.2407407407407408 Ti
   0.0000000000000000    0.3571428571428571    0.2407407407407408 Ti
   0.0000000000000000    0.4285714285714285    0.2407407407407408 Ti
   0.0000000000000000    0.5000000000000000    0.2407407407407408 Ti
   0.0000000000000000    0.5714285714285714    0.2407407407407408 Ti
   0.0000000000000000    0.6428571428571428    0.2407407407407408 Ti
   0.0000000000000000    0.7142857142857142    0.2407407407407408 Ti
   0.9999999999999999    0.7857142857142856    0.2407407407407408 Ti
   0.0000000000000000    0.8571428571428570    0.2407407407407408 Ti
   0.0000000000000000    0.9285714285714285    0.2407407407407408 Ti
   0.0714285714285714    0.0000000000000000    0.2407407407407408 Ti
   0.0714285714285714    0.0714285714285714    0.2407407407407408 Ti
   0.0714285714285714    0.1428571428571428    0.2407407407407408 Ti
   0.0714285714285714    0.2142857142857142    0.2407407407407408 Ti
   0.0714285714285714    0.2857142857142857    0.2407407407407408 Ti
   0.0714285714285714    0.3571428571428571    0.2407407407407408 Ti
   0.0714285714285714    0.4285714285714285    0.2407407407407408 Ti
   0.0714285714285714    0.5000000000000000    0.2407407407407408 Ti
   0.0714285714285714    0.5714285714285714    0.2407407407407408 Ti
   0.0714285714285714    0.6428571428571428    0.2407407407407408 Ti
   0.0714285714285715    0.7142857142857142    0.2407407407407408 Ti
   0.0714285714285713    0.7857142857142856    0.2407407407407408 Ti
   0.0714285714285714    0.8571428571428570    0.2407407407407408 Ti
   0.0714285714285713    0.9285714285714285    0.2407407407407408 Ti
   0.1428571428571429    0.0000000000000000    0.2407407407407408 Ti
   0.1428571428571428    0.0714285714285714    0.2407407407407408 Ti
   0.1428571428571428    0.1428571428571428    0.2407407407407408 Ti
   0.1428571428571428    0.2142857142857142    0.2407407407407408 Ti
   0.1428571428571428    0.2857142857142857    0.2407407407407408 Ti
   0.1428571428571428    0.3571428571428571    0.2407407407407408 Ti
   0.1428571428571428    0.4285714285714285    0.2407407407407408 Ti
   0.1428571428571428    0.5000000000000000    0.2407407407407408 Ti
   0.1428571428571428    0.5714285714285714    0.2407407407407408 Ti
   0.1428571428571428    0.6428571428571428    0.2407407407407408 Ti
   0.1428571428571428    0.7142857142857142    0.2407407407407408 Ti
   0.1428571428571428    0.7857142857142856    0.2407407407407408 Ti
   0.1428571428571428    0.8571428571428570    0.2407407407407408 Ti
   0.1428571428571428    0.9285714285714285    0.2407407407407408 Ti
   0.2142857142857143    0.0000000000000000    0.2407407407407408 Ti
   0.2142857142857143    0.0714285714285714    0.2407407407407408 Ti
   0.2142857142857143    0.1428571428571428    0.2407407407407408 Ti
   0.2142857142857143    0.2142857142857142    0.2407407407407408 Ti
   0.2142857142857143    0.2857142857142857    0.2407407407407408 Ti
   0.2142857142857143    0.3571428571428571    0.2407407407407408 Ti
   0.2142857142857143    0.4285714285714285    0.2407407407407408 Ti
   0.2142857142857143    0.5000000000000000    0.2407407407407408 Ti
   0.2142857142857143    0.5714285714285714    0.2407407407407408 Ti
   0.2142857142857142    0.6428571428571428    0.2407407407407408 Ti
   0.2142857142857143    0.7142857142857142    0.2407407407407408 Ti
   0.2142857142857142    0.7857142857142856    0.2407407407407408 Ti
   0.2142857142857143    0.8571428571428570    0.2407407407407408 Ti
   0.2142857142857142    0.9285714285714285    0.2407407407407408 Ti
   0.2857142857142858    0.0000000000000000    0.2407407407407408 Ti
   0.2857142857142858    0.0714285714285714    0.2407407407407408 Ti
   0.2857142857142857    0.1428571428571428    0.2407407407407408 Ti
   0.2857142857142858    0.2142857142857142    0.2407407407407408 Ti
   0.2857142857142857    0.2857142857142857    0.2407407407407408 Ti
   0.2857142857142858    0.3571428571428571    0.2407407407407408 Ti
   0.2857142857142857    0.4285714285714285    0.2407407407407408 Ti
   0.2857142857142857    0.5000000000000000    0.2407407407407408 Ti
   0.2857142857142857    0.5714285714285714    0.2407407407407408 Ti
   0.2857142857142857    0.6428571428571428    0.2407407407407408 Ti
   0.2857142857142857    0.7142857142857142    0.2407407407407408 Ti
   0.2857142857142856    0.7857142857142856    0.2407407407407408 Ti
   0.2857142857142857    0.8571428571428570    0.2407407407407408 Ti
   0.2857142857142857    0.9285714285714285    0.2407407407407408 Ti
   0.3571428571428572    0.0000000000000000    0.2407407407407408 Ti
   0.3571428571428571    0.0714285714285714    0.2407407407407408 Ti
   0.3571428571428571    0.1428571428571428    0.2407407407407408 Ti
   0.3571428571428572    0.2142857142857142    0.2407407407407408 Ti
   0.3571428571428571    0.2857142857142857    0.2407407407407408 Ti
   0.3571428571428571    0.3571428571428571    0.2407407407407408 Ti
   0.3571428571428571    0.4285714285714285    0.2407407407407408 Ti
   0.3571428571428571    0.5000000000000000    0.2407407407407408 Ti
   0.3571428571428571    0.5714285714285714    0.2407407407407408 Ti
   0.3571428571428571    0.6428571428571428    0.2407407407407408 Ti
   0.3571428571428571    0.7142857142857142    0.2407407407407408 Ti
   0.3571428571428570    0.7857142857142856    0.2407407407407408 Ti
   0.3571428571428571    0.8571428571428570    0.2407407407407408 Ti
   0.3571428571428571    0.9285714285714285    0.2407407407407408 Ti
   0.4285714285714286    0.0000000000000000    0.2407407407407408 Ti
   0.4285714285714285    0.0714285714285714    0.2407407407407408 Ti
   0.4285714285714286    0.1428571428571428    0.2407407407407408 Ti
   0.4285714285714286    0.2142857142857142    0.2407407407407408 Ti
   0.4285714285714285    0.2857142857142857    0.2407407407407408 Ti
   0.4285714285714286    0.3571428571428571    0.2407407407407408 Ti
   0.4285714285714285    0.4285714285714285    0.2407407407407408 Ti
   0.4285714285714286    0.5000000000000000    0.2407407407407408 Ti
   0.4285714285714286    0.5714285714285714    0.2407407407407408 Ti
   0.4285714285714285    0.6428571428571428    0.2407407407407408 Ti
   0.4285714285714285    0.7142857142857142    0.2407407407407408 Ti
   0.4285714285714285    0.7857142857142856    0.2407407407407408 Ti
   0.4285714285714285    0.8571428571428570    0.2407407407407408 Ti
   0.4285714285714285    0.9285714285714285    0.2407407407407408 Ti
   0.5000000000000000    0.0000000000000000    0.2407407407407408 Ti
   0.5000000000000000    0.0714285714285714    0.2407407407407408 Ti
   0.5000000000000000    0.1428571428571428    0.2407407407407408 Ti
   0.5000000000000000    0.2142857142857142    0.2407407407407408 Ti
   0.5000000000000000    0.2857142857142857    0.2407407407407408 Ti
   0.5000000000000000    0.3571428571428571    0.2407407407407408 Ti
   0.5000000000000000    0.4285714285714285    0.2407407407407408 Ti
   0.5000000000000000    0.5000000000000000    0.2407407407407408 Ti
   0.5000000000000000    0.5714285714285714    0.2407407407407408 Ti
   0.5000000000000000    0.6428571428571428    0.2407407407407408 Ti
   0.5000000000000000    0.7142857142857142    0.2407407407407408 Ti
   0.4999999999999999    0.7857142857142856    0.2407407407407408 Ti
   0.5000000000000000    0.8571428571428570    0.2407407407407408 Ti
   0.5000000000000000    0.9285714285714285    0.2407407407407408 Ti
   0.5714285714285715    0.0000000000000000    0.2407407407407408 Ti
   0.5714285714285715    0.0714285714285714    0.2407407407407408 Ti
   0.5714285714285715    0.1428571428571428    0.2407407407407408 Ti
   0.5714285714285715    0.2142857142857142    0.2407407407407408 Ti
   0.5714285714285714    0.2857142857142857    0.2407407407407408 Ti
   0.5714285714285714    0.3571428571428571    0.2407407407407408 Ti
   0.5714285714285715    0.4285714285714285    0.2407407407407408 Ti
   0.5714285714285714    0.5000000000000000    0.2407407407407408 Ti
   0.5714285714285714    0.5714285714285714    0.2407407407407408 Ti
   0.5714285714285714    0.6428571428571428    0.2407407407407408 Ti
   0.5714285714285715    0.7142857142857142    0.2407407407407408 Ti
   0.5714285714285714    0.7857142857142856    0.2407407407407408 Ti
   0.5714285714285714    0.8571428571428570    0.2407407407407408 Ti
   0.5714285714285714    0.9285714285714285    0.2407407407407408 Ti
   0.6428571428571429    0.0000000000000000    0.2407407407407408 Ti
   0.6428571428571429    0.0714285714285714    0.2407407407407408 Ti
   0.6428571428571429    0.1428571428571428    0.2407407407407408 Ti
   0.6428571428571429    0.2142857142857142    0.2407407407407408 Ti
   0.6428571428571428    0.2857142857142857    0.2407407407407408 Ti
   0.6428571428571428    0.3571428571428571    0.2407407407407408 Ti
   0.6428571428571429    0.4285714285714285    0.2407407407407408 Ti
   0.6428571428571428    0.5000000000000000    0.2407407407407408 Ti
   0.6428571428571428    0.5714285714285714    0.2407407407407408 Ti
   0.6428571428571429    0.6428571428571428    0.2407407407407408 Ti
   0.6428571428571428    0.7142857142857142    0.2407407407407408 Ti
   0.6428571428571428    0.7857142857142856    0.2407407407407408 Ti
   0.6428571428571428    0.8571428571428570    0.2407407407407408 Ti
   0.6428571428571428    0.9285714285714285    0.2407407407407408 Ti
   0.7142857142857143    0.0000000000000000    0.2407407407407408 Ti
   0.7142857142857143    0.0714285714285714    0.2407407407407408 Ti
   0.7142857142857142    0.1428571428571428    0.2407407407407408 Ti
   0.7142857142857143    0.2142857142857142    0.2407407407407408 Ti
   0.7142857142857142    0.2857142857142857    0.2407407407407408 Ti
   0.7142857142857142    0.3571428571428571    0.2407407407407408 Ti
   0.7142857142857143    0.4285714285714285    0.2407407407407408 Ti
   0.7142857142857142    0.5000000000000000    0.2407407407407408 Ti
   0.7142857142857142    0.5714285714285714    0.2407407407407408 Ti
   0.7142857142857143    0.6428571428571428    0.2407407407407408 Ti
   0.7142857142857142    0.7142857142857142    0.2407407407407408 Ti
   0.7142857142857142    0.7857142857142856    0.2407407407407408 Ti
   0.7142857142857142    0.8571428571428570    0.2407407407407408 Ti
   0.7142857142857142    0.9285714285714285    0.2407407407407408 Ti
   0.7857142857142858    0.0000000000000000    0.2407407407407408 Ti
   0.7857142857142858    0.0714285714285714    0.2407407407407408 Ti
   0.7857142857142857    0.1428571428571428    0.2407407407407408 Ti
   0.7857142857142858    0.2142857142857142    0.2407407407407408 Ti
   0.7857142857142858    0.2857142857142857    0.2407407407407408 Ti
   0.7857142857142858    0.3571428571428571    0.2407407407407408 Ti
   0.7857142857142858    0.4285714285714285    0.2407407407407408 Ti
   0.7857142857142858    0.5000000000000000    0.2407407407407408 Ti
   0.7857142857142857    0.5714285714285714    0.2407407407407408 Ti
   0.7857142857142858    0.6428571428571428    0.2407407407407408 Ti
   0.7857142857142858    0.7142857142857142    0.2407407407407408 Ti
   0.7857142857142857    0.7857142857142856    0.2407407407407408 Ti
   0.7857142857142857    0.8571428571428570    0.2407407407407408 Ti
   0.7857142857142858    0.9285714285714285    0.2407407407407408 Ti
   0.8571428571428572    0.0000000000000000    0.2407407407407408 Ti
   0.8571428571428572    0.0714285714285714    0.2407407407407408 Ti
   0.8571428571428571    0.1428571428571428    0.2407407407407408 Ti
   0.8571428571428572    0.2142857142857142    0.2407407407407408 Ti
   0.8571428571428572    0.2857142857142857    0.2407407407407408 Ti
   0.8571428571428572    0.3571428571428571    0.2407407407407408 Ti
   0.8571428571428572    0.4285714285714285    0.2407407407407408 Ti
   0.8571428571428571    0.5000000000000000    0.2407407407407408 Ti
   0.8571428571428571    0.5714285714285714    0.2407407407407408 Ti
   0.8571428571428572    0.6428571428571428    0.2407407407407408 Ti
   0.8571428571428572    0.7142857142857142    0.2407407407407408 Ti
   0.8571428571428571    0.7857142857142856    0.2407407407407408 Ti
   0.8571428571428571    0.8571428571428570    0.2407407407407408 Ti
   0.8571428571428572    0.9285714285714285    0.2407407407407408 Ti
   0.9285714285714286    0.0000000000000000    0.2407407407407408 Ti
   0.9285714285714286    0.0714285714285714    0.2407407407407408 Ti
   0.9285714285714285    0.1428571428571428    0.2407407407407408 Ti
   0.9285714285714286    0.2142857142857142    0.2407407407407408 Ti
   0.9285714285714286    0.2857142857142857    0.2407407407407408 Ti
   0.9285714285714286    0.3571428571428571    0.2407407407407408 Ti
   0.9285714285714286    0.4285714285714285    0.2407407407407408 Ti
   0.9285714285714286    0.5000000000000000    0.2407407407407408 Ti
   0.9285714285714285    0.5714285714285714    0.2407407407407408 Ti
   0.9285714285714286    0.6428571428571428    0.2407407407407408 Ti
   0.9285714285714285    0.7142857142857142    0.2407407407407408 Ti
   0.9285714285714285    0.7857142857142856    0.2407407407407408 Ti
   0.9285714285714286    0.8571428571428570    0.2407407407407408 Ti
   0.9285714285714286    0.9285714285714285    0.2407407407407408 Ti
   0.0238095000000000    0.0476190714285714    0.2296296296296297 Ti
   0.0238095000000000    0.1190476428571429    0.2296296296296297 Ti
   0.0238095000000000    0.1904762142857143    0.2296296296296297 Ti
   0.0238095000000000    0.2619047857142857    0.2296296296296297 Ti
   0.0238095000000000    0.3333333571428571    0.2296296296296297 Ti
   0.0238095000000000    0.4047619285714285    0.2296296296296297 Ti
   0.0238095000000000    0.4761905000000000    0.2296296296296297 Ti
   0.0238095000000000    0.5476190714285714    0.2296296296296297 Ti
   0.0238095000000000    0.6190476428571429    0.2296296296296297 Ti
   0.0238095000000000    0.6904762142857143    0.2296296296296297 Ti
   0.0238095000000000    0.7619047857142857    0.2296296296296297 Ti
   0.0238094999999999    0.8333333571428571    0.2296296296296297 Ti
   0.0238094999999999    0.9047619285714285    0.2296296296296297 Ti
   0.0238095000000000    0.9761904999999999    0.2296296296296297 Ti
   0.0952380714285714    0.0476190714285714    0.2296296296296297 Ti
   0.0952380714285714    0.1190476428571429    0.2296296296296297 Ti
   0.0952380714285714    0.1904762142857143    0.2296296296296297 Ti
   0.0952380714285714    0.2619047857142857    0.2296296296296297 Ti
   0.0952380714285714    0.3333333571428571    0.2296296296296297 Ti
   0.0952380714285714    0.4047619285714285    0.2296296296296297 Ti
   0.0952380714285714    0.4761905000000000    0.2296296296296297 Ti
   0.0952380714285714    0.5476190714285714    0.2296296296296297 Ti
   0.0952380714285714    0.6190476428571429    0.2296296296296297 Ti
   0.0952380714285714    0.6904762142857143    0.2296296296296297 Ti
   0.0952380714285714    0.7619047857142857    0.2296296296296297 Ti
   0.0952380714285714    0.8333333571428571    0.2296296296296297 Ti
   0.0952380714285714    0.9047619285714285    0.2296296296296297 Ti
   0.0952380714285714    0.9761904999999999    0.2296296296296297 Ti
   0.1666666428571429    0.0476190714285714    0.2296296296296297 Ti
   0.1666666428571429    0.1190476428571429    0.2296296296296297 Ti
   0.1666666428571429    0.1904762142857143    0.2296296296296297 Ti
   0.1666666428571429    0.2619047857142857    0.2296296296296297 Ti
   0.1666666428571429    0.3333333571428571    0.2296296296296297 Ti
   0.1666666428571429    0.4047619285714285    0.2296296296296297 Ti
   0.1666666428571428    0.4761905000000000    0.2296296296296297 Ti
   0.1666666428571428    0.5476190714285714    0.2296296296296297 Ti
   0.1666666428571429    0.6190476428571429    0.2296296296296297 Ti
   0.1666666428571429    0.6904762142857143    0.2296296296296297 Ti
   0.1666666428571428    0.7619047857142857    0.2296296296296297 Ti
   0.1666666428571427    0.8333333571428571    0.2296296296296297 Ti
   0.1666666428571428    0.9047619285714285    0.2296296296296297 Ti
   0.1666666428571428    0.9761904999999999    0.2296296296296297 Ti
   0.2380952142857143    0.0476190714285714    0.2296296296296297 Ti
   0.2380952142857143    0.1190476428571429    0.2296296296296297 Ti
   0.2380952142857143    0.1904762142857143    0.2296296296296297 Ti
   0.2380952142857143    0.2619047857142857    0.2296296296296297 Ti
   0.2380952142857143    0.3333333571428571    0.2296296296296297 Ti
   0.2380952142857143    0.4047619285714285    0.2296296296296297 Ti
   0.2380952142857143    0.4761905000000000    0.2296296296296297 Ti
   0.2380952142857143    0.5476190714285714    0.2296296296296297 Ti
   0.2380952142857143    0.6190476428571429    0.2296296296296297 Ti
   0.2380952142857143    0.6904762142857143    0.2296296296296297 Ti
   0.2380952142857143    0.7619047857142857    0.2296296296296297 Ti
   0.2380952142857142    0.8333333571428571    0.2296296296296297 Ti
   0.2380952142857143    0.9047619285714285    0.2296296296296297 Ti
   0.2380952142857142    0.9761904999999999    0.2296296296296297 Ti
   0.3095237857142857    0.0476190714285714    0.2296296296296297 Ti
   0.3095237857142857    0.1190476428571429    0.2296296296296297 Ti
   0.3095237857142857    0.1904762142857143    0.2296296296296297 Ti
   0.3095237857142857    0.2619047857142857    0.2296296296296297 Ti
   0.3095237857142857    0.3333333571428571    0.2296296296296297 Ti
   0.3095237857142857    0.4047619285714285    0.2296296296296297 Ti
   0.3095237857142857    0.4761905000000000    0.2296296296296297 Ti
   0.3095237857142857    0.5476190714285714    0.2296296296296297 Ti
   0.3095237857142857    0.6190476428571429    0.2296296296296297 Ti
   0.3095237857142857    0.6904762142857143    0.2296296296296297 Ti
   0.3095237857142857    0.7619047857142857    0.2296296296296297 Ti
   0.3095237857142856    0.8333333571428571    0.2296296296296297 Ti
   0.3095237857142857    0.9047619285714285    0.2296296296296297 Ti
   0.3095237857142857    0.9761904999999999    0.2296296296296297 Ti
   0.3809523571428571    0.0476190714285714    0.2296296296296297 Ti
   0.3809523571428571    0.1190476428571429    0.2296296296296297 Ti
   0.3809523571428572    0.1904762142857143    0.2296296296296297 Ti
   0.3809523571428571    0.2619047857142857    0.2296296296296297 Ti
   0.3809523571428571    0.3333333571428571    0.2296296296296297 Ti
   0.3809523571428571    0.4047619285714285    0.2296296296296297 Ti
   0.3809523571428571    0.4761905000000000    0.2296296296296297 Ti
   0.3809523571428571    0.5476190714285714    0.2296296296296297 Ti
   0.3809523571428571    0.6190476428571429    0.2296296296296297 Ti
   0.3809523571428571    0.6904762142857143    0.2296296296296297 Ti
   0.3809523571428571    0.7619047857142857    0.2296296296296297 Ti
   0.3809523571428570    0.8333333571428571    0.2296296296296297 Ti
   0.3809523571428571    0.9047619285714285    0.2296296296296297 Ti
   0.3809523571428571    0.9761904999999999    0.2296296296296297 Ti
   0.4523809285714286    0.0476190714285714    0.2296296296296297 Ti
   0.4523809285714286    0.1190476428571429    0.2296296296296297 Ti
   0.4523809285714286    0.1904762142857143    0.2296296296296297 Ti
   0.4523809285714286    0.2619047857142857    0.2296296296296297 Ti
   0.4523809285714286    0.3333333571428571    0.2296296296296297 Ti
   0.4523809285714286    0.4047619285714285    0.2296296296296297 Ti
   0.4523809285714285    0.4761905000000000    0.2296296296296297 Ti
   0.4523809285714286    0.5476190714285714    0.2296296296296297 Ti
   0.4523809285714285    0.6190476428571429    0.2296296296296297 Ti
   0.4523809285714285    0.6904762142857143    0.2296296296296297 Ti
   0.4523809285714285    0.7619047857142857    0.2296296296296297 Ti
   0.4523809285714285    0.8333333571428571    0.2296296296296297 Ti
   0.4523809285714285    0.9047619285714285    0.2296296296296297 Ti
   0.4523809285714285    0.9761904999999999    0.2296296296296297 Ti
   0.5238095000000000    0.0476190714285714    0.2296296296296297 Ti
   0.5238095000000000    0.1190476428571429    0.2296296296296297 Ti
   0.5238095000000000    0.1904762142857143    0.2296296296296297 Ti
   0.5238095000000000    0.2619047857142857    0.2296296296296297 Ti
   0.5238095000000000    0.3333333571428571    0.2296296296296297 Ti
   0.5238095000000000    0.4047619285714285    0.2296296296296297 Ti
   0.5238095000000000    0.4761905000000000    0.2296296296296297 Ti
   0.5238095000000000    0.5476190714285714    0.2296296296296297 Ti
   0.5238095000000000    0.6190476428571429    0.2296296296296297 Ti
   0.5238095000000000    0.6904762142857143    0.2296296296296297 Ti
   0.5238095000000000    0.7619047857142857    0.2296296296296297 Ti
   0.5238094999999999    0.8333333571428571    0.2296296296296297 Ti
   0.5238095000000000    0.9047619285714285    0.2296296296296297 Ti
   0.5238095000000000    0.9761904999999999    0.2296296296296297 Ti
   0.5952380714285715    0.0476190714285714    0.2296296296296297 Ti
   0.5952380714285715    0.1190476428571429    0.2296296296296297 Ti
   0.5952380714285714    0.1904762142857143    0.2296296296296297 Ti
   0.5952380714285714    0.2619047857142857    0.2296296296296297 Ti
   0.5952380714285714    0.3333333571428571    0.2296296296296297 Ti
   0.5952380714285714    0.4047619285714285    0.2296296296296297 Ti
   0.5952380714285714    0.4761905000000000    0.2296296296296297 Ti
   0.5952380714285714    0.5476190714285714    0.2296296296296297 Ti
   0.5952380714285714    0.6190476428571429    0.2296296296296297 Ti
   0.5952380714285714    0.6904762142857143    0.2296296296296297 Ti
   0.5952380714285714    0.7619047857142857    0.2296296296296297 Ti
   0.5952380714285714    0.8333333571428571    0.2296296296296297 Ti
   0.5952380714285714    0.9047619285714285    0.2296296296296297 Ti
   0.5952380714285714    0.9761904999999999    0.2296296296296297 Ti
   0.6666666428571429    0.0476190714285714    0.2296296296296297 Ti
   0.6666666428571429    0.1190476428571429    0.2296296296296297 Ti
   0.6666666428571428    0.1904762142857143    0.2296296296296297 Ti
   0.6666666428571431    0.2619047857142857    0.2296296296296297 Ti
   0.6666666428571428    0.3333333571428571    0.2296296296296297 Ti
   0.6666666428571428    0.4047619285714285    0.2296296296296297 Ti
   0.6666666428571428    0.4761905000000000    0.2296296296296297 Ti
   0.6666666428571428    0.5476190714285714    0.2296296296296297 Ti
   0.6666666428571428    0.6190476428571429    0.2296296296296297 Ti
   0.6666666428571428    0.6904762142857143    0.2296296296296297 Ti
   0.6666666428571428    0.7619047857142857    0.2296296296296297 Ti
   0.6666666428571428    0.8333333571428571    0.2296296296296297 Ti
   0.6666666428571428    0.9047619285714285    0.2296296296296297 Ti
   0.6666666428571428    0.9761904999999999    0.2296296296296297 Ti
   0.7380952142857143    0.0476190714285714    0.2296296296296297 Ti
   0.7380952142857143    0.1190476428571429    0.2296296296296297 Ti
   0.7380952142857142    0.1904762142857143    0.2296296296296297 Ti
   0.7380952142857145    0.2619047857142857    0.2296296296296297 Ti
   0.7380952142857142    0.3333333571428571    0.2296296296296297 Ti
   0.7380952142857142    0.4047619285714285    0.2296296296296297 Ti
   0.7380952142857142    0.4761905000000000    0.2296296296296297 Ti
   0.7380952142857142    0.5476190714285714    0.2296296296296297 Ti
   0.7380952142857142    0.6190476428571429    0.2296296296296297 Ti
   0.7380952142857142    0.6904762142857143    0.2296296296296297 Ti
   0.7380952142857142    0.7619047857142857    0.2296296296296297 Ti
   0.7380952142857142    0.8333333571428571    0.2296296296296297 Ti
   0.7380952142857142    0.9047619285714285    0.2296296296296297 Ti
   0.7380952142857142    0.9761904999999999    0.2296296296296297 Ti
   0.8095237857142858    0.0476190714285714    0.2296296296296297 Ti
   0.8095237857142858    0.1190476428571429    0.2296296296296297 Ti
   0.8095237857142857    0.1904762142857143    0.2296296296296297 Ti
   0.8095237857142858    0.2619047857142857    0.2296296296296297 Ti
   0.8095237857142858    0.3333333571428571    0.2296296296296297 Ti
   0.8095237857142858    0.4047619285714285    0.2296296296296297 Ti
   0.8095237857142858    0.4761905000000000    0.2296296296296297 Ti
   0.8095237857142858    0.5476190714285714    0.2296296296296297 Ti
   0.8095237857142857    0.6190476428571429    0.2296296296296297 Ti
   0.8095237857142858    0.6904762142857143    0.2296296296296297 Ti
   0.8095237857142858    0.7619047857142857    0.2296296296296297 Ti
   0.8095237857142856    0.8333333571428571    0.2296296296296297 Ti
   0.8095237857142857    0.9047619285714285    0.2296296296296297 Ti
   0.8095237857142858    0.9761904999999999    0.2296296296296297 Ti
   0.8809523571428572    0.0476190714285714    0.2296296296296297 Ti
   0.8809523571428572    0.1190476428571429    0.2296296296296297 Ti
   0.8809523571428571    0.1904762142857143    0.2296296296296297 Ti
   0.8809523571428572    0.2619047857142857    0.2296296296296297 Ti
   0.8809523571428572    0.3333333571428571    0.2296296296296297 Ti
   0.8809523571428572    0.4047619285714285    0.2296296296296297 Ti
   0.8809523571428572    0.4761905000000000    0.2296296296296297 Ti
   0.8809523571428571    0.5476190714285714    0.2296296296296297 Ti
   0.8809523571428571    0.6190476428571429    0.2296296296296297 Ti
   0.8809523571428571    0.6904762142857143    0.2296296296296297 Ti
   0.8809523571428571    0.7619047857142857    0.2296296296296297 Ti
   0.8809523571428570    0.8333333571428571    0.2296296296296297 Ti
   0.8809523571428571    0.9047619285714285    0.2296296296296297 Ti
   0.8809523571428572    0.9761904999999999    0.2296296296296297 Ti
   0.9523809285714286    0.0476190714285714    0.2296296296296297 Ti
   0.9523809285714286    0.1190476428571429    0.2296296296296297 Ti
   0.9523809285714285    0.1904762142857143    0.2296296296296297 Ti
   0.9523809285714286    0.2619047857142857    0.2296296296296297 Ti
   0.9523809285714286    0.3333333571428571    0.2296296296296297 Ti
   0.9523809285714286    0.4047619285714285    0.2296296296296297 Ti
   0.9523809285714284    0.4761905000000000    0.2296296296296297 Ti
   0.9523809285714286    0.5476190714285714    0.2296296296296297 Ti
   0.9523809285714285    0.6190476428571429    0.2296296296296297 Ti
   0.9523809285714285    0.6904762142857143    0.2296296296296297 Ti
   0.9523809285714285    0.7619047857142857    0.2296296296296297 Ti
   0.9523809285714285    0.8333333571428571    0.2296296296296297 Ti
   0.9523809285714284    0.9047619285714285    0.2296296296296297 Ti
   0.9523809285714286    0.9761904999999999    0.2296296296296297 Ti
   0.0476190714285714    0.0238095000000000    0.2296296296296297 Ti
   0.0476190714285714    0.0952380714285714    0.2296296296296297 Ti
   0.0476190714285714    0.1666666428571428    0.2296296296296297 Ti
   0.0476190714285714    0.2380952142857143    0.2296296296296297 Ti
   0.0476190714285714    0.3095237857142857    0.2296296296296297 Ti
   0.0476190714285714    0.3809523571428571    0.2296296296296297 Ti
   0.0476190714285714    0.4523809285714285    0.2296296296296297 Ti
   0.0476190714285714    0.5238094999999999    0.2296296296296297 Ti
   0.0476190714285714    0.5952380714285714    0.2296296296296297 Ti
   0.0476190714285714    0.6666666428571428    0.2296296296296297 Ti
   0.0476190714285715    0.7380952142857142    0.2296296296296297 Ti
   0.0476190714285714    0.8095237857142856    0.2296296296296297 Ti
   0.0476190714285714    0.8809523571428570    0.2296296296296297 Ti
   0.0476190714285714    0.9523809285714284    0.2296296296296297 Ti
   0.1190476428571429    0.0238095000000000    0.2296296296296297 Ti
   0.1190476428571429    0.0952380714285714    0.2296296296296297 Ti
   0.1190476428571429    0.1666666428571428    0.2296296296296297 Ti
   0.1190476428571428    0.2380952142857143    0.2296296296296297 Ti
   0.1190476428571428    0.3095237857142857    0.2296296296296297 Ti
   0.1190476428571429    0.3809523571428571    0.2296296296296297 Ti
   0.1190476428571428    0.4523809285714285    0.2296296296296297 Ti
   0.1190476428571428    0.5238094999999999    0.2296296296296297 Ti
   0.1190476428571428    0.5952380714285714    0.2296296296296297 Ti
   0.1190476428571428    0.6666666428571428    0.2296296296296297 Ti
   0.1190476428571429    0.7380952142857142    0.2296296296296297 Ti
   0.1190476428571428    0.8095237857142856    0.2296296296296297 Ti
   0.1190476428571428    0.8809523571428570    0.2296296296296297 Ti
   0.1190476428571428    0.9523809285714284    0.2296296296296297 Ti
   0.1904762142857143    0.0238095000000000    0.2296296296296297 Ti
   0.1904762142857143    0.0952380714285714    0.2296296296296297 Ti
   0.1904762142857143    0.1666666428571428    0.2296296296296297 Ti
   0.1904762142857143    0.2380952142857143    0.2296296296296297 Ti
   0.1904762142857143    0.3095237857142857    0.2296296296296297 Ti
   0.1904762142857143    0.3809523571428571    0.2296296296296297 Ti
   0.1904762142857143    0.4523809285714285    0.2296296296296297 Ti
   0.1904762142857143    0.5238094999999999    0.2296296296296297 Ti
   0.1904762142857143    0.5952380714285714    0.2296296296296297 Ti
   0.1904762142857143    0.6666666428571428    0.2296296296296297 Ti
   0.1904762142857143    0.7380952142857142    0.2296296296296297 Ti